instances/knapsack12.dat
param n = 12;
param costBound = 2187;
param value := 
[0] 622
[1] 101
[2] 219
[3] 996
[4] 287
[5] 467
[6] 1097
[7] 790
[8] 122
[9] 713
[10] 447
[11] 974
;

param cost := 
[0] 522
[1] 1
[2] 119
[3] 896
[4] 187
[5] 367
[6] 997
[7] 690
[8] 22
[9] 613
[10] 347
[11] 874
;
